50
2 0 9
2 1 9
3 0 9
4 0 7
4 1 4
4 2 4
4 3 9
5 0 3
5 1 2
5 2 8
5 3 1
6 1 3
6 2 10
7 2 3
7 4 3
7 5 5
8 3 5
9 3 4
9 4 4
10 2 10
10 3 6
10 4 1
10 8 7
10 9 5
11 0 8
11 3 5
11 4 7
11 5 5
12 1 7
12 2 10
12 4 4
12 11 4
13 1 3
13 5 3
13 6 4
13 9 9
13 11 5
14 0 5
14 3 2
14 5 9
14 6 5
14 7 7
14 8 8
14 9 1
14 12 1
15 3 2
15 6 9
15 7 2
15 8 6
15 9 8
15 10 7
15 12 6
15 14 8
16 1 4
16 4 6
16 5 7
16 6 3
16 11 3
16 12 2
16 14 10
16 15 7
17 1 8
17 3 4
17 4 10
17 8 7
17 10 2
17 12 8
17 13 10
18 0 9
18 2 8
18 5 3
18 6 8
18 10 7
18 11 1
18 12 6
18 15 9
18 17 9
19 0 7
19 4 5
19 5 10
19 7 10
19 13 3
19 15 4
19 18 6
20 2 4
20 4 1
20 7 9
20 9 6
20 11 7
20 13 7
20 15 9
20 17 1
21 2 7
21 3 4
21 4 7
21 5 3
21 7 6
21 10 5
21 12 6
21 14 1
21 16 9
21 17 10
21 18 3
21 19 5
21 20 4
22 3 9
22 6 10
22 7 1
22 8 5
22 9 6
22 11 5
22 15 3
22 16 8
22 18 7
22 19 7
22 20 6
22 21 2
23 2 10
23 4 7
23 5 1
23 6 8
23 8 8
23 10 6
23 11 8
23 12 4
23 13 2
23 16 1
23 17 7
23 19 6
23 20 3
23 21 3
24 1 4
24 2 10
24 3 6
24 5 5
24 6 7
24 8 10
24 9 2
24 10 10
24 12 7
24 13 10
24 14 3
24 15 4
24 16 6
24 17 4
24 18 6
24 19 3
24 21 10
24 23 2
25 1 3
25 2 10
25 5 9
25 8 5
25 9 8
25 10 10
25 13 5
25 14 7
25 16 3
25 17 5
25 19 5
25 20 2
25 23 5
25 24 6
26 0 5
26 1 1
26 2 2
26 3 1
26 6 1
26 7 2
26 8 3
26 9 6
26 11 3
26 12 7
26 15 4
26 18 8
26 19 7
26 20 6
26 21 5
26 22 3
26 23 9
26 25 1
27 1 9
27 3 7
27 5 5
27 6 9
27 8 1
27 9 3
27 12 2
27 13 9
27 14 3
27 15 2
27 16 5
27 17 3
27 19 9
27 22 5
28 0 7
28 3 9
28 4 1
28 5 3
28 6 7
28 11 5
28 12 5
28 13 1
28 16 2
28 17 3
28 20 9
28 21 6
28 22 3
28 24 7
28 26 2
28 27 8
29 0 3
29 1 5
29 4 5
29 5 7
29 9 8
29 13 9
29 14 5
29 15 2
29 19 7
29 20 8
29 21 10
29 24 5
29 25 3
29 26 7
29 28 5
30 2 8
30 4 10
30 5 6
30 7 2
30 8 3
30 9 4
30 10 2
30 11 1
30 12 6
30 15 5
30 16 4
30 19 3
30 22 2
30 24 6
30 26 3
30 27 8
30 28 7
30 29 9
31 1 6
31 3 4
31 4 3
31 5 4
31 12 4
31 15 3
31 16 9
31 26 1
31 27 9
31 28 2
31 29 3
31 30 9
32 1 2
32 2 1
32 8 8
32 9 8
32 11 4
32 12 5
32 16 9
32 18 2
32 20 7
32 22 10
32 23 4
32 26 1
32 27 4
32 29 3
32 30 9
32 31 3
33 0 2
33 1 4
33 2 9
33 4 1
33 8 8
33 10 4
33 11 10
33 14 10
33 15 4
33 18 5
33 20 3
33 21 9
33 22 1
33 23 2
33 24 2
33 27 8
33 30 3
33 31 9
33 32 10
34 1 8
34 2 10
34 3 7
34 5 1
34 9 9
34 13 5
34 18 2
34 19 8
34 20 5
34 28 1
35 1 6
35 2 2
35 3 9
35 5 8
35 7 9
35 8 8
35 10 5
35 12 3
35 14 4
35 15 8
35 16 2
35 18 1
35 20 10
35 21 3
35 22 3
35 23 5
35 26 2
35 27 1
35 28 4
36 0 8
36 5 7
36 6 9
36 7 9
36 9 2
36 10 9
36 11 10
36 12 3
36 13 10
36 15 8
36 16 10
36 17 1
36 18 4
36 20 5
36 21 8
36 23 10
36 24 2
36 27 8
36 29 6
36 31 9
36 32 1
36 34 4
36 35 1
37 0 3
37 1 3
37 2 10
37 5 1
37 6 10
37 10 7
37 12 5
37 13 10
37 15 8
37 16 3
37 17 1
37 18 6
37 20 3
37 21 8
37 22 9
37 23 6
37 25 4
37 27 1
37 28 10
37 29 1
37 33 4
37 36 1
38 0 5
38 2 8
38 3 1
38 4 8
38 6 9
38 7 5
38 9 3
38 12 3
38 13 4
38 14 2
38 16 8
38 17 8
38 21 6
38 22 1
38 23 9
38 24 8
38 25 9
38 26 1
38 28 3
38 29 4
38 31 2
38 33 1
38 34 2
38 35 2
38 36 1
38 37 6
39 1 3
39 7 6
39 10 7
39 13 9
39 16 4
39 18 1
39 20 1
39 21 4
39 22 4
39 23 2
39 25 4
39 26 8
39 27 5
39 30 6
39 31 10
39 32 10
39 35 4
40 0 2
40 2 3
40 3 1
40 4 9
40 6 7
40 8 8
40 9 2
40 11 2
40 12 4
40 13 6
40 15 10
40 18 9
40 19 7
40 20 2
40 22 9
40 23 6
40 26 8
40 28 3
40 31 1
40 32 4
40 34 7
40 35 4
41 4 6
41 5 2
41 7 6
41 9 5
41 10 7
41 14 7
41 16 1
41 17 7
41 18 10
41 21 4
41 22 5
41 25 6
41 26 10
41 28 5
41 29 4
41 31 4
41 32 6
41 34 10
41 35 7
41 38 5
41 40 3
42 0 10
42 1 2
42 4 10
42 5 2
42 7 5
42 8 6
42 9 3
42 10 2
42 12 2
42 13 10
42 15 8
42 16 6
42 17 5
42 18 1
42 19 3
42 21 5
42 23 1
42 24 4
42 25 7
42 26 8
42 29 6
42 30 1
42 31 7
42 32 1
42 33 6
42 36 4
42 37 10
42 38 7
42 39 3
42 40 9
43 0 10
43 1 4
43 2 4
43 4 6
43 7 5
43 11 3
43 12 9
43 13 9
43 14 9
43 15 7
43 21 2
43 25 2
43 26 2
43 28 5
43 29 9
43 30 5
43 31 3
43 34 5
43 36 3
43 37 7
43 38 6
44 0 7
44 4 8
44 6 1
44 9 6
44 10 6
44 11 2
44 13 10
44 14 4
44 18 4
44 24 1
44 25 6
44 26 6
44 29 8
44 30 7
44 31 6
44 32 5
44 34 7
44 35 10
44 37 9
44 38 9
44 39 5
44 40 5
45 3 6
45 4 9
45 5 7
45 8 6
45 9 10
45 15 1
45 16 9
45 17 5
45 18 2
45 19 9
45 23 1
45 24 3
45 26 7
45 27 8
45 28 2
45 29 3
45 30 2
45 34 3
45 35 1
45 37 6
45 38 9
45 42 2
45 43 3
46 0 7
46 3 4
46 6 4
46 7 9
46 9 6
46 11 9
46 12 7
46 14 6
46 15 3
46 16 5
46 17 4
46 19 10
46 20 9
46 21 9
46 22 1
46 26 10
46 27 10
46 28 4
46 30 4
46 32 7
46 33 8
46 34 9
46 36 9
46 37 10
46 38 3
46 39 5
46 44 4
47 0 4
47 3 3
47 7 9
47 8 4
47 11 9
47 12 10
47 14 4
47 18 2
47 19 3
47 23 5
47 24 9
47 25 1
47 27 2
47 29 8
47 30 5
47 31 8
47 33 1
47 35 3
47 37 6
47 38 2
47 39 8
47 40 3
47 41 5
47 42 3
47 43 5
47 44 2
48 3 9
48 6 8
48 10 6
48 11 1
48 13 7
48 14 8
48 17 5
48 18 2
48 19 10
48 23 9
48 25 10
48 29 10
48 31 5
48 32 8
48 33 6
48 34 8
48 35 2
48 37 3
48 38 1
48 41 6
48 43 9
48 46 7
48 47 1
49 3 5
49 5 10
49 8 2
49 9 7
49 11 7
49 15 9
49 17 1
49 19 2
49 21 4
49 23 3
49 24 3
49 27 7
49 28 6
49 29 7
49 30 1
49 32 2
49 39 3
49 40 8
49 41 9
49 42 2
49 43 1
49 45 9
49 46 9
49 47 7
